WARNING: for repeatability, setting FPU to use double precision
============================[ Problem Statistics ]=============================
|                                                                             |
|  Number of variables:           100                                         |
|  Number of clauses:             449                                         |
|  Parse time:                   0.00 s                                       |
|  Eliminated clauses:           0.00 Mb                                      |
|  Simplification time:          0.00 s                                       |
|                                                                             |
============================[ Search Statistics ]==============================
| Conflicts |          ORIGINAL         |          LEARNT          | Progress |
|           |    Vars  Clauses Literals |    Limit  Clauses Lit/Cl |          |
===============================================================================
|       100 |      98      441     1331 |      163       31      6 |  1.010 % |
===============================================================================
restarts              : 2
conflicts             : 145            (54266 /sec)
decisions             : 183            (0.00 % random) (68488 /sec)
propagations          : 3842           (1437874 /sec)
conflict literals     : 830            (21.25 % deleted)
Memory used           : 13.00 MB
CPU time              : 0.002672 s

SATISFIABLE
